
% NumVehicles = 3;
NumLocs = 5;

dist = [|0, 2913, 1446, 1607, 815
 |2427, 0, 2582, 2345,2354 
 |1362, 3070, 0, 877,  1140 
 |2475, 2807, 96476, 0,  845 
 |931, 2111, 1507, 1452,  0 |];


% locX = [226.0, 173.0, 198.0, 209.0];
% locY = [234.0, 167.0, 189.0, 207.0];

